3135
3188
3267
3200
3323
3812
3537
3744
3633
3457
4175
4437
4691
3925
4026
4353
4697
4642
4737
4457
5188
5197
4996
5166
4482
5627
5900
5614
5896
5709
6310
5927
5964
6090
5979
6786
7141
6978
6540
7441
4179
4551
4623
4764
4415
5427
5006
4821
4997
5047
6012
6337
6372
6425
6155
6997
6720
6731
7182
6745
8068
8049
8091
8060
7797
8877
8672
8733
8565
8767
9765
10480
9947
9932
10024
10232
10623
11272
10804
10367
